3 100 1821
5 7 2 8 6 6 10 4 6 7
3 4 4
7 1 9
9 7 3 2
5 6 7 1
0 40.0 50.0 0.0 0.0 0 1236
2 45.0 68.0 90.0 10.0 0 1127 59 0 1 0 0 0 0 0 1 1 0
3 45.0 70.0 90.0 30.0 0 1125 98 0 0 0 0 0 1 0 0 0 0
4 42.0 66.0 90.0 10.0 0 1129 15 1 1 0 0 0 0 1 0 0 0
5 42.0 68.0 90.0 10.0 727 782 76 1 0 0 0 0 0 0 0 0 0
6 42.0 65.0 90.0 10.0 0 1130 43 0 0 0 0 1 1 0 0 0 1
7 40.0 69.0 90.0 20.0 621 702 85 0 1 0 0 1 0 1 0 0 0
8 40.0 66.0 90.0 20.0 0 1130 85 0 1 0 1 0 0 0 0 0 0
9 38.0 68.0 90.0 20.0 255 324 62 0 0 0 0 0 1 0 0 0 0
10 38.0 70.0 90.0 10.0 534 605 78 0 0 0 0 0 0 0 0 1 0
11 35.0 66.0 90.0 10.0 357 410 72 0 1 0 0 1 0 0 0 0 1
12 35.0 69.0 90.0 10.0 448 505 26 1 0 0 1 1 0 1 0 0 0
13 25.0 85.0 90.0 20.0 0 1107 96 0 0 0 0 0 1 1 0 0 1
14 22.0 75.0 90.0 30.0 30 92 55 0 0 1 0 0 0 0 0 0 0
15 22.0 85.0 90.0 10.0 567 620 55 0 0 0 0 0 0 1 0 0 0
16 20.0 80.0 90.0 40.0 384 429 17 0 0 0 0 0 0 0 0 1 1
17 20.0 85.0 90.0 40.0 475 528 73 0 0 0 1 1 0 1 0 0 0
18 18.0 75.0 90.0 20.0 99 148 21 0 0 0 0 0 1 0 0 0 0
19 15.0 75.0 90.0 20.0 179 254 32 0 0 0 1 0 0 0 0 0 0
20 15.0 80.0 90.0 10.0 278 345 55 0 0 0 0 0 1 0 0 0 0
21 30.0 50.0 90.0 10.0 10 73 49 0 1 1 0 0 0 0 1 0 0
22 30.0 52.0 90.0 20.0 0 1135 55 0 0 0 0 0 1 0 0 0 0
23 28.0 52.0 90.0 20.0 812 883 72 0 0 0 0 0 0 0 0 1 0
24 28.0 55.0 90.0 10.0 732 777 40 0 0 1 0 0 0 0 1 0 0
25 25.0 50.0 90.0 10.0 65 144 29 1 0 0 1 0 1 0 0 1 0
26 25.0 52.0 90.0 40.0 169 224 59 0 0 0 1 0 0 0 0 0 0
27 25.0 55.0 90.0 10.0 0 1130 39 1 0 0 0 1 0 0 0 0 0
28 23.0 52.0 90.0 10.0 261 316 76 0 1 0 0 0 0 0 0 0 0
29 23.0 55.0 90.0 20.0 546 593 47 1 0 1 0 1 1 0 0 0 1
30 20.0 50.0 90.0 10.0 358 405 32 0 0 0 0 0 0 0 1 0 1
31 20.0 55.0 90.0 10.0 449 504 93 0 0 0 0 0 0 1 0 1 0
32 10.0 35.0 90.0 20.0 0 1112 19 0 0 0 0 0 0 0 1 1 0
33 10.0 40.0 90.0 30.0 31 100 76 0 1 0 0 1 0 0 1 0 1
34 8.0 40.0 90.0 40.0 87 158 55 0 1 1 0 0 0 1 0 0 0
35 8.0 45.0 90.0 20.0 0 1113 77 1 0 0 0 1 1 0 0 0 0
36 5.0 35.0 90.0 10.0 283 344 84 1 0 0 0 0 0 0 0 0 0
37 5.0 45.0 90.0 10.0 665 716 15 1 0 0 1 0 0 0 0 0 0
38 2.0 40.0 90.0 20.0 0 1106 22 0 1 0 0 0 1 0 0 0 0
39 0.0 40.0 90.0 30.0 479 522 52 1 1 0 0 0 0 0 0 0 0
40 0.0 45.0 90.0 20.0 567 624 96 0 0 1 0 0 0 0 0 0 0
41 35.0 30.0 90.0 10.0 264 321 31 0 0 0 0 0 0 0 1 0 0
42 35.0 32.0 90.0 10.0 166 235 72 0 0 0 0 0 0 1 0 1 0
43 33.0 32.0 90.0 20.0 68 149 90 1 1 0 0 0 0 0 1 0 0
44 33.0 35.0 90.0 10.0 16 80 7 0 0 0 0 0 1 1 0 1 0
45 32.0 30.0 90.0 10.0 359 412 42 0 0 0 0 1 0 1 0 0 0
46 30.0 30.0 90.0 10.0 541 600 54 0 0 0 0 0 1 1 0 0 0
47 30.0 32.0 90.0 30.0 448 509 53 0 0 0 0 0 1 0 0 0 0
48 30.0 35.0 90.0 10.0 1054 1127 24 1 0 0 0 0 0 0 1 0 0
49 28.0 30.0 90.0 10.0 0 1122 82 0 1 0 0 0 0 1 0 0 0
50 28.0 35.0 90.0 10.0 1001 1066 72 0 0 0 0 0 1 0 0 0 1
51 26.0 32.0 90.0 10.0 0 1123 75 0 0 1 1 0 0 0 0 0 0
52 25.0 30.0 90.0 10.0 725 786 37 0 0 0 1 0 0 1 1 0 0
53 25.0 35.0 90.0 10.0 0 1124 76 0 0 0 0 0 1 0 0 0 0
54 44.0 5.0 90.0 20.0 286 347 92 0 0 0 0 1 0 1 0 0 1
55 42.0 10.0 90.0 40.0 186 257 79 0 0 0 1 0 1 0 0 0 0
56 42.0 15.0 90.0 10.0 95 158 35 0 0 0 0 0 1 0 0 0 1
57 40.0 5.0 90.0 30.0 385 436 7 0 0 0 0 0 1 0 0 0 0
58 40.0 15.0 90.0 40.0 35 87 87 0 0 0 1 0 0 1 0 1 0
59 38.0 5.0 90.0 30.0 471 534 51 0 1 0 0 0 0 0 1 0 0
60 38.0 15.0 90.0 10.0 0 1110 51 0 0 1 1 0 0 0 0 0 1
61 35.0 5.0 90.0 20.0 562 629 87 0 1 0 0 0 0 0 1 0 0
62 50.0 30.0 90.0 10.0 531 610 49 0 0 1 0 1 1 0 0 0 0
63 50.0 35.0 90.0 20.0 262 317 6 0 0 0 1 0 0 1 0 1 1
64 50.0 40.0 90.0 50.0 171 218 51 0 1 0 0 0 0 1 0 0 1
65 48.0 30.0 90.0 10.0 632 693 0 0 1 0 0 0 0 0 0 0 0
66 48.0 40.0 90.0 10.0 76 129 32 0 0 0 0 1 0 0 0 0 0
67 47.0 35.0 90.0 10.0 826 875 17 0 1 0 0 0 0 0 0 0 0
68 47.0 40.0 90.0 10.0 12 77 80 0 0 0 1 0 1 0 0 0 1
69 45.0 30.0 90.0 10.0 734 777 51 0 1 1 1 0 0 0 0 0 1
70 45.0 35.0 90.0 10.0 916 969 42 0 0 0 1 0 1 0 0 0 0
71 95.0 30.0 90.0 30.0 387 456 52 0 0 0 0 1 0 1 0 0 0
72 95.0 35.0 90.0 20.0 293 360 68 0 0 1 0 0 1 0 1 0 0
73 53.0 30.0 90.0 10.0 0 1122 75 0 0 0 0 0 1 0 0 0 0
74 92.0 30.0 90.0 10.0 478 551 84 0 0 0 0 0 1 0 0 0 0
75 53.0 35.0 90.0 50.0 353 412 70 0 0 1 1 0 0 0 0 0 0
76 45.0 65.0 90.0 20.0 0 1130 73 1 1 0 0 0 0 0 0 0 0
77 90.0 35.0 90.0 10.0 203 260 76 0 0 0 0 0 0 0 0 1 0
78 88.0 30.0 90.0 10.0 574 643 99 0 0 0 0 0 1 0 1 0 0
79 88.0 35.0 90.0 20.0 109 170 5 0 0 0 0 0 1 0 0 0 0
80 87.0 30.0 90.0 10.0 668 731 20 0 0 0 0 0 0 1 0 1 0
81 85.0 25.0 90.0 10.0 769 820 46 1 0 0 0 0 0 0 0 1 0
82 85.0 35.0 90.0 30.0 47 124 76 0 0 1 1 0 0 1 0 0 1
83 75.0 55.0 90.0 20.0 0 1110 65 0 0 0 0 0 1 0 0 0 0
84 72.0 55.0 90.0 10.0 0 1113 57 0 0 0 0 0 0 0 0 0 1
85 70.0 58.0 90.0 20.0 458 523 49 1 1 0 1 1 0 0 0 0 0
86 68.0 60.0 90.0 30.0 0 1116 77 1 0 0 1 0 0 0 0 1 0
87 66.0 55.0 90.0 10.0 173 238 81 1 0 0 0 0 1 0 0 0 0
88 65.0 55.0 90.0 20.0 85 144 80 1 1 0 1 1 0 0 0 0 0
89 65.0 60.0 90.0 30.0 645 708 74 0 0 0 0 0 1 0 0 0 0
90 63.0 58.0 90.0 10.0 737 802 59 0 0 0 0 0 1 0 0 0 0
91 60.0 55.0 90.0 10.0 20 84 53 0 0 0 1 0 0 0 0 1 0
92 60.0 60.0 90.0 10.0 0 1123 93 0 0 0 1 1 0 0 0 0 0
93 67.0 85.0 90.0 20.0 368 441 97 1 0 0 0 0 0 0 1 0 0
94 65.0 85.0 90.0 40.0 475 518 27 0 0 0 0 1 0 0 1 0 0
95 65.0 82.0 90.0 10.0 0 1105 94 0 1 0 0 1 1 0 1 0 0
96 62.0 80.0 90.0 30.0 0 1108 33 1 0 0 0 0 0 1 0 0 1
97 60.0 80.0 90.0 10.0 0 1109 89 1 0 1 1 0 0 0 0 0 0
98 60.0 85.0 90.0 30.0 561 622 45 0 0 0 0 0 0 1 0 0 0
99 58.0 75.0 90.0 20.0 0 1115 11 0 0 0 0 1 0 1 0 0 0
100 55.0 80.0 90.0 10.0 743 820 73 0 0 0 0 1 0 0 1 0 0
101 55.0 85.0 90.0 20.0 647 726 98 0 1 0 0 0 1 0 1 0 0